proyfinal/src/viki/013/experimentInOfficeAgust.take6.output/bafac187-bbc4-4cb4-adf7-2e1c90d42128.als.dat
{'cnf.clauses': '118081',
 'cnf.totvars': '69608',
 'conflict literals': '15',
 'conflicts': '10',
 'decisions': '4462',
 'memused.mb': '15.51',
 'outcome': 'UNSAT',
 'propagations': '27194',
 'restarts': '1',
 'solver.msecs': 35,
 'task.msecs': 89}
