proyfinal/src/viki/013/experimentInOfficeAgust.take6.output/bafac187-bbc4-4cb4-adf7-2e1c90d42128.als.out
Reading from standard input... Use '--help' for help.
============================[ Problem Statistics ]=============================
|                                                                             |
|  Number of variables:         69608                                         |
|  Number of clauses:          118081                                         |
|  Parse time:                   0.03 s                                       |
|                                                                             |
============================[ Search Statistics ]==============================
| Conflicts |          ORIGINAL         |          LEARNT          | Progress |
|           |    Vars  Clauses Literals |    Limit  Clauses Lit/Cl |          |
===============================================================================
===============================================================================
restarts              : 1
conflicts             : 10             (285 /sec)
decisions             : 4462           (0.00 % random) (127155 /sec)
propagations          : 27194          (774957 /sec)
conflict literals     : 15             (0.00 % deleted)
Memory used           : 15.51 MB
CPU time              : 0.035091 s

UNSATISFIABLE
